# vtk DataFile Version 2.0
output.vtk
ASCII
DATASET UNSTRUCTURED_GRID
POINTS 27 double
0 0 0
0.5 0 0
0 0.5 0
0.5 0.5 0
0 0 0.5
0.5 0 0.5
0 0.5 0.5
0.5 0.5 0.5
0.5 0.5 1
0 0 1
0 0.5 1
0.5 0 1
0.5 1 0.5
0 1 0
0 1 0.5
0.5 1 0
0 1 1
0.5 1 1
1 0 0
1 0.5 0
1 0 0.5
1 0.5 0.5
1 0 1
1 0.5 1
1 1 0.5
1 1 0
1 1 1

CELLS 117 396
1 0
1 1
1 2
1 3
1 4
1 5
1 6
1 7
1 8
1 9
1 10
1 11
1 12
1 13
1 14
1 15
1 16
1 17
1 18
1 19
1 20
1 21
1 22
1 23
1 24
1 25
1 26
2 1 5
2 5 7
2 7 3
2 3 1
2 1 0
2 0 4
2 4 5
2 3 2
2 2 0
2 7 6
2 6 2
2 6 4
2 7 8
2 8 10
2 10 6
2 5 11
2 11 8
2 11 9
2 9 10
2 9 4
2 12 15
2 15 3
2 7 12
2 12 14
2 14 13
2 13 15
2 6 14
2 13 2
2 8 17
2 17 12
2 10 16
2 16 17
2 14 16
2 18 19
2 19 3
2 1 18
2 18 20
2 20 21
2 21 19
2 5 20
2 21 7
2 21 23
2 23 8
2 20 22
2 22 23
2 11 22
2 24 21
2 12 24
2 24 25
2 25 19
2 15 25
2 23 26
2 26 24
2 17 26
4 1 5 7 3
4 1 0 4 5
4 1 3 2 0
4 2 3 7 6
4 2 6 4 0
4 4 6 7 5
4 7 8 10 6
4 7 5 11 8
4 8 11 9 10
4 6 10 9 4
4 9 11 5 4
4 12 15 3 7
4 12 14 13 15
4 12 7 6 14
4 13 2 3 15
4 13 14 6 2
4 8 17 12 7
4 8 10 16 17
4 6 14 16 10
4 14 12 17 16
4 18 19 3 1
4 18 20 21 19
4 18 1 5 20
4 19 21 7 3
4 20 5 7 21
4 7 21 23 8
4 21 20 22 23
4 20 5 11 22
4 11 8 23 22
4 24 21 7 12
4 24 25 19 21
4 24 12 15 25
4 15 3 19 25
4 21 23 26 24
4 26 23 8 17
4 26 17 12 24

CELL_TYPES 117
1
1
1
1
1
1
1
1
1
1
1
1
1
1
1
1
1
1
1
1
1
1
1
1
1
1
1
3
3
3
3
3
3
3
3
3
3
3
3
3
3
3
3
3
3
3
3
3
3
3
3
3
3
3
3
3
3
3
3
3
3
3
3
3
3
3
3
3
3
3
3
3
3
3
3
3
3
3
3
3
3
7
7
7
7
7
7
7
7
7
7
7
7
7
7
7
7
7
7
7
7
7
7
7
7
7
7
7
7
7
7
7
7
7
7
7
7

POINT_DATA 27
VECTORS Displacement double
0 0 0
0 0 0
0 0 0
0 0 0
0 0 0
0 0 0
0 0 0
0.0181677 0.0181688 0.0181708
0 0 0
0 0 0
0 0 0
0 0 0
0 0 0
0 0 0
0 0 0
0 0 0
0 0 0
0 0 0
0 0 0
0 0 0
0 0 0
0 0 0
0 0 0
0 0 0
0 0 0
0 0 0
0 0 0

FIELD FieldData 2
Strain 6 27 double
0.00908384 0.00908441 0.0090854 0.0181683 0.0181698 0.0181692
0 0.00908441 0.0090854 0.00908384 0.0181698 0.00908384
0.00908384 0 0.0090854 0.00908441 0.00908441 0.0181692
0 0 0.0090854 0 0.00908441 0.00908384
0.00908384 0.00908441 0 0.0181683 0.0090854 0.0090854
0 0.00908441 0 0.00908384 0.0090854 0
0.00908384 0 0 0.00908441 0 0.0090854
0 0 0 0 0 0
0 0 -0.0090854 0 -0.00908441 -0.00908384
0.00908384 0.00908441 -0.0090854 0.0181683 9.87311e-07 1.56019e-06
0.00908384 0 -0.0090854 0.00908441 -0.00908441 1.56019e-06
0 0.00908441 -0.0090854 0.00908384 9.87311e-07 -0.00908384
0 -0.00908441 0 -0.00908384 -0.0090854 0
0.00908384 -0.00908441 0.0090854 5.72875e-07 -9.87311e-07 0.0181692
0.00908384 -0.00908441 0 5.72875e-07 -0.0090854 0.0090854
0 -0.00908441 0.0090854 -0.00908384 -9.87311e-07 0.00908384
0.00908384 -0.00908441 -0.0090854 5.72875e-07 -0.0181698 1.56019e-06
0 -0.00908441 -0.0090854 -0.00908384 -0.0181698 -0.00908384
-0.00908384 0.00908441 0.0090854 -5.72875e-07 0.0181698 -1.56019e-06
-0.00908384 0 0.0090854 -0.00908441 0.00908441 -1.56019e-06
-0.00908384 0.00908441 0 -5.72875e-07 0.0090854 -0.0090854
-0.00908384 0 0 -0.00908441 0 -0.0090854
-0.00908384 0.00908441 -0.0090854 -5.72875e-07 9.87311e-07 -0.0181692
-0.00908384 0 -0.0090854 -0.00908441 -0.00908441 -0.0181692
-0.00908384 -0.00908441 0 -0.0181683 -0.0090854 -0.0090854
-0.00908384 -0.00908441 0.0090854 -0.0181683 -9.87311e-07 -1.56019e-06
-0.00908384 -0.00908441 -0.0090854 -0.0181683 -0.0181698 -0.0181692

Stresses 6 27 double
0.0454213 0.0363386 0.0272562 0.0181683 0.0181698 0.0181692
0.0181698 0.0363386 0.0272562 0.00908384 0.0181698 0.00908384
0.0363369 0.0090854 0.0272562 0.00908441 0.00908441 0.0181692
0.0090854 0.0090854 0.0272562 0 0.00908441 0.00908384
0.0363359 0.0272532 0 0.0181683 0.0090854 0.0090854
0.00908441 0.0272532 0 0.00908384 0.0090854 0
0.0272515 0 0 0.00908441 0 0.0090854
0 0 0 0 0 0
-0.0090854 -0.0090854 -0.0272562 0 -0.00908441 -0.00908384
0.0272505 0.0181678 -0.0272562 0.0181683 9.87311e-07 1.56019e-06
0.0181661 -0.0090854 -0.0272562 0.00908441 -0.00908441 1.56019e-06
-9.87311e-07 0.0181678 -0.0272562 0.00908384 9.87311e-07 -0.00908384
-0.00908441 -0.0272532 0 -0.00908384 -0.0090854 0
0.0272525 -0.0181678 0.0272562 5.72875e-07 -9.87311e-07 0.0181692
0.0181671 -0.0272532 0 5.72875e-07 -0.0090854 0.0090854
9.87311e-07 -0.0181678 0.0272562 -0.00908384 -9.87311e-07 0.00908384
0.00908171 -0.0363386 -0.0272562 5.72875e-07 -0.0181698 1.56019e-06
-0.0181698 -0.0363386 -0.0272562 -0.00908384 -0.0181698 -0.00908384
-0.00908171 0.0363386 0.0272562 -5.72875e-07 0.0181698 -1.56019e-06
-0.0181661 0.0090854 0.0272562 -0.00908441 0.00908441 -1.56019e-06
-0.0181671 0.0272532 0 -5.72875e-07 0.0090854 -0.0090854
-0.0272515 0 0 -0.00908441 0 -0.0090854
-0.0272525 0.0181678 -0.0272562 -5.72875e-07 9.87311e-07 -0.0181692
-0.0363369 -0.0090854 -0.0272562 -0.00908441 -0.00908441 -0.0181692
-0.0363359 -0.0272532 0 -0.0181683 -0.0090854 -0.0090854
-0.0272505 -0.0181678 0.0272562 -0.0181683 -9.87311e-07 -1.56019e-06
-0.0454213 -0.0363386 -0.0272562 -0.0181683 -0.0181698 -0.0181692
